(set-logic QF_NRA)
(set-info :source |Benchmarks generated from hycomp (https://es-static.fbk.eu/tools/hycomp/). BMC instances of non-linear hybrid automata taken from: Alessandro Cimatti, Sergio Mover, Stefano Tonetta, A quantifier-free SMT encoding of non-linear hybrid automata, FMCAD 2012 and Alessandro Cimatti, Sergio Mover, Stefano Tonetta, Quantier-free encoding of invariants for Hybrid Systems, Formal Methods in System Design. This instance solves a BMC problem of depth 3 and uses the encoding obtained with quantifier elimination using qepcad encoding. Contacts: Sergio Mover (mover@fbk.eu), Stefano Tonetta (tonettas@fbk.eu), Alessandro Cimatti (cimatti@fbk.eu).|)
(set-info :smt-lib-version 2.0)
(set-info :category "industrial")
(set-info :status unsat)
;; MathSAT API call trace
;; generated on Mon Mar 19 10:48:27 2012
(declare-fun b.event_is_timed__AT0 () Bool)
(declare-fun b.counter.0__AT3 () Bool)
(declare-fun b.time__AT0 () Real)
(declare-fun b.EVENT.1__AT1 () Bool)
(declare-fun b.counter.1__AT2 () Bool)
(declare-fun b.delta__AT0 () Real)
(declare-fun b.x__AT3 () Real)
(declare-fun b.y__AT2 () Real)
(declare-fun b.EVENT.1__AT3 () Bool)
(declare-fun b.y__AT0 () Real)
(declare-fun b.speed_y__AT2 () Real)
(declare-fun b.speed_y__AT3 () Real)
(declare-fun b.counter.0__AT0 () Bool)
(declare-fun b.EVENT.1__AT0 () Bool)
(declare-fun b.EVENT.0__AT0 () Bool)
(declare-fun b.counter.3__AT0 () Bool)
(declare-fun b.counter.1__AT0 () Bool)
(declare-fun b.counter.1__AT3 () Bool)
(declare-fun b.bool_atom__AT1 () Bool)
(declare-fun b.counter.2__AT3 () Bool)
(declare-fun b.counter.3__AT3 () Bool)
(declare-fun b.bool_atom__AT3 () Bool)
(declare-fun b.g__AT0 () Real)
(declare-fun b.event_is_timed__AT1 () Bool)
(declare-fun b.speed_y__AT0 () Real)
(declare-fun b.y__AT1 () Real)
(declare-fun b.event_is_timed__AT2 () Bool)
(declare-fun b.counter.2__AT0 () Bool)
(declare-fun b.counter.0__AT1 () Bool)
(declare-fun b.counter.1__AT1 () Bool)
(declare-fun b.counter.2__AT1 () Bool)
(declare-fun b.counter.2__AT2 () Bool)
(declare-fun b.time__AT3 () Real)
(declare-fun b.time__AT2 () Real)
(declare-fun b.counter.3__AT1 () Bool)
(declare-fun b.x__AT1 () Real)
(declare-fun b.bool_atom__AT0 () Bool)
(declare-fun b.counter.3__AT2 () Bool)
(declare-fun b.event_is_timed__AT3 () Bool)
(declare-fun b.delta__AT3 () Real)
(declare-fun b.x__AT0 () Real)
(declare-fun b.delta__AT2 () Real)
(declare-fun b.bool_atom__AT2 () Bool)
(declare-fun b.EVENT.0__AT3 () Bool)
(declare-fun b.EVENT.0__AT2 () Bool)
(declare-fun b.delta__AT1 () Real)
(declare-fun b.EVENT.1__AT2 () Bool)
(declare-fun b.speed_y__AT1 () Real)
(declare-fun b.x__AT2 () Real)
(declare-fun b.y__AT3 () Real)
(declare-fun b.time__AT1 () Real)
(declare-fun b.EVENT.0__AT1 () Bool)
(declare-fun b.counter.0__AT2 () Bool)
(assert (let ((.def_619 (* 5.0 b.delta__AT3)))
(let ((.def_620 (* b.delta__AT3 .def_619)))
(let ((.def_621 (* (- 1.0) .def_620)))
(let ((.def_617 (* b.speed_y__AT3 b.delta__AT3)))
(let ((.def_624 (+ .def_617 .def_621)))
(let ((.def_614 (* b.x__AT3 b.x__AT3)))
(let ((.def_625 (+ .def_614 .def_624)))
(let ((.def_626 (+ b.y__AT3 .def_625)))
(let ((.def_627 (<= 0.0 .def_626)))
(let ((.def_615 (+ b.y__AT3 .def_614)))
(let ((.def_616 (<= 0.0 .def_615)))
(let ((.def_628 (and .def_616 .def_627)))
(let ((.def_612 (<= 0.0 b.delta__AT3)))
(let ((.def_613 (not .def_612)))
(let ((.def_629 (or .def_613 .def_628)))
(let ((.def_596 (not b.EVENT.0__AT3)))
(let ((.def_594 (not b.EVENT.1__AT3)))
(let ((.def_609 (and .def_594 .def_596)))
(let ((.def_610 (not .def_609)))
(let ((.def_630 (or .def_610 .def_629)))
(let ((.def_339 (not b.counter.0__AT2)))
(let ((.def_329 (not b.counter.1__AT2)))
(let ((.def_605 (and .def_329 .def_339)))
(let ((.def_334 (not b.counter.2__AT2)))
(let ((.def_606 (and .def_334 .def_605)))
(let ((.def_599 (* (- 1.0) b.x__AT3)))
(let ((.def_600 (* b.x__AT3 .def_599)))
(let ((.def_601 (<= .def_600 b.y__AT3)))
(let ((.def_57 (<= b.g__AT0 10.0 )))
(let ((.def_56 (<= 8.0 b.g__AT0)))
(let ((.def_58 (and .def_56 .def_57)))
(let ((.def_602 (and .def_58 .def_601)))
(let ((.def_597 (or .def_594 .def_596)))
(let ((.def_6 (not b.counter.0__AT3)))
(let ((.def_4 (not b.counter.1__AT3)))
(let ((.def_587 (or .def_4 .def_6)))
(let ((.def_591 (or b.counter.3__AT3 .def_587)))
(let ((.def_588 (or b.counter.2__AT3 .def_587)))
(let ((.def_9 (not b.counter.2__AT3)))
(let ((.def_586 (or .def_6 .def_9)))
(let ((.def_589 (and .def_586 .def_588)))
(let ((.def_524 (not b.counter.3__AT3)))
(let ((.def_590 (or .def_524 .def_589)))
(let ((.def_592 (and .def_590 .def_591)))
(let ((.def_598 (and .def_592 .def_597)))
(let ((.def_603 (and .def_598 .def_602)))
(let ((.def_436 (<= 0.0 b.delta__AT2)))
(let ((.def_420 (not b.EVENT.0__AT2)))
(let ((.def_418 (not b.EVENT.1__AT2)))
(let ((.def_433 (and .def_418 .def_420)))
(let ((.def_434 (not .def_433)))
(let ((.def_582 (or .def_434 .def_436)))
(let ((.def_583 (or b.EVENT.1__AT2 .def_582)))
(let ((.def_492 (= b.bool_atom__AT2 b.bool_atom__AT3)))
(let ((.def_488 (= b.counter.0__AT3 b.counter.0__AT2)))
(let ((.def_486 (= b.counter.1__AT3 b.counter.1__AT2)))
(let ((.def_484 (= b.counter.2__AT3 b.counter.2__AT2)))
(let ((.def_483 (= b.counter.3__AT2 b.counter.3__AT3)))
(let ((.def_485 (and .def_483 .def_484)))
(let ((.def_487 (and .def_485 .def_486)))
(let ((.def_489 (and .def_487 .def_488)))
(let ((.def_578 (and .def_489 .def_492)))
(let ((.def_579 (or .def_434 .def_578)))
(let ((.def_580 (or b.EVENT.1__AT2 .def_579)))
(let ((.def_196 (* (- 1.0) b.g__AT0)))
(let ((.def_567 (* .def_196 b.delta__AT2)))
(let ((.def_568 (* (- 1.0) b.speed_y__AT3)))
(let ((.def_571 (+ .def_568 .def_567)))
(let ((.def_572 (+ b.speed_y__AT2 .def_571)))
(let ((.def_573 (= .def_572 0.0 )))
(let ((.def_556 (* b.delta__AT2 b.delta__AT2)))
(let ((.def_199 (* (/ 1 2) .def_196)))
(let ((.def_557 (* .def_199 .def_556)))
(let ((.def_558 (* (- 1.0) b.y__AT3)))
(let ((.def_562 (+ .def_558 .def_557)))
(let ((.def_441 (* b.speed_y__AT2 b.delta__AT2)))
(let ((.def_563 (+ .def_441 .def_562)))
(let ((.def_564 (+ b.y__AT2 .def_563)))
(let ((.def_565 (= .def_564 0.0 )))
(let ((.def_474 (= b.x__AT2 b.x__AT3)))
(let ((.def_566 (and .def_474 .def_565)))
(let ((.def_574 (and .def_566 .def_573)))
(let ((.def_575 (or .def_434 .def_574)))
(let ((.def_477 (= b.y__AT2 b.y__AT3)))
(let ((.def_551 (and .def_474 .def_477)))
(let ((.def_480 (= b.speed_y__AT2 b.speed_y__AT3)))
(let ((.def_552 (and .def_480 .def_551)))
(let ((.def_548 (= b.delta__AT2 0.0 )))
(let ((.def_549 (and .def_433 .def_548)))
(let ((.def_550 (not .def_549)))
(let ((.def_553 (or .def_550 .def_552)))
(let ((.def_554 (or b.EVENT.1__AT2 .def_553)))
(let ((.def_541 (and .def_480 .def_489)))
(let ((.def_542 (or b.bool_atom__AT2 .def_541)))
(let ((.def_516 (or .def_6 b.counter.0__AT2)))
(let ((.def_515 (or b.counter.0__AT3 .def_339)))
(let ((.def_517 (and .def_515 .def_516)))
(let ((.def_518 (and .def_4 .def_517)))
(let ((.def_519 (or b.counter.1__AT2 .def_518)))
(let ((.def_514 (or b.counter.1__AT3 .def_329)))
(let ((.def_520 (and .def_514 .def_519)))
(let ((.def_532 (and .def_9 .def_520)))
(let ((.def_533 (or b.counter.2__AT2 .def_532)))
(let ((.def_527 (and .def_4 .def_339)))
(let ((.def_528 (or b.counter.1__AT2 .def_527)))
(let ((.def_529 (and .def_514 .def_528)))
(let ((.def_530 (and b.counter.2__AT3 .def_529)))
(let ((.def_531 (or .def_334 .def_530)))
(let ((.def_534 (and .def_531 .def_533)))
(let ((.def_535 (and b.counter.3__AT3 .def_534)))
(let ((.def_536 (or b.counter.3__AT2 .def_535)))
(let ((.def_521 (and b.counter.2__AT3 .def_520)))
(let ((.def_522 (or b.counter.2__AT2 .def_521)))
(let ((.def_510 (or b.counter.1__AT3 b.counter.1__AT2)))
(let ((.def_508 (and .def_4 b.counter.0__AT3)))
(let ((.def_509 (or .def_329 .def_508)))
(let ((.def_511 (and .def_509 .def_510)))
(let ((.def_512 (and .def_9 .def_511)))
(let ((.def_513 (or .def_334 .def_512)))
(let ((.def_523 (and .def_513 .def_522)))
(let ((.def_525 (and .def_523 .def_524)))
(let ((.def_348 (not b.counter.3__AT2)))
(let ((.def_526 (or .def_348 .def_525)))
(let ((.def_537 (and .def_526 .def_536)))
(let ((.def_505 (* b.speed_y__AT3 b.speed_y__AT3)))
(let ((.def_326 (* b.speed_y__AT2 b.speed_y__AT2)))
(let ((.def_506 (= .def_326 .def_505)))
(let ((.def_503 (+ b.speed_y__AT2 b.speed_y__AT3)))
(let ((.def_504 (= .def_503 0.0 )))
(let ((.def_507 (and .def_504 .def_506)))
(let ((.def_538 (and .def_507 .def_537)))
(let ((.def_502 (not b.bool_atom__AT2)))
(let ((.def_539 (or .def_502 .def_538)))
(let ((.def_498 (<= 0.0 b.speed_y__AT2)))
(let ((.def_499 (not .def_498)))
(let ((.def_423 (* (- 1.0) b.x__AT2)))
(let ((.def_424 (* b.x__AT2 .def_423)))
(let ((.def_497 (= b.y__AT2 .def_424)))
(let ((.def_500 (and .def_497 .def_499)))
(let ((.def_501 (= b.bool_atom__AT2 .def_500)))
(let ((.def_540 (and .def_501 .def_539)))
(let ((.def_543 (and .def_540 .def_542)))
(let ((.def_544 (and .def_474 .def_543)))
(let ((.def_545 (and .def_477 .def_544)))
(let ((.def_546 (or .def_433 .def_545)))
(let ((.def_547 (or b.EVENT.1__AT2 .def_546)))
(let ((.def_555 (and .def_547 .def_554)))
(let ((.def_576 (and .def_555 .def_575)))
(let ((.def_461 (= b.time__AT2 b.time__AT3)))
(let ((.def_475 (and .def_461 .def_474)))
(let ((.def_478 (and .def_475 .def_477)))
(let ((.def_481 (and .def_478 .def_480)))
(let ((.def_490 (and .def_481 .def_489)))
(let ((.def_493 (and .def_490 .def_492)))
(let ((.def_494 (or .def_418 .def_493)))
(let ((.def_464 (* (- 1.0) b.time__AT3)))
(let ((.def_467 (+ b.delta__AT2 .def_464)))
(let ((.def_468 (+ b.time__AT2 .def_467)))
(let ((.def_469 (= .def_468 0.0 )))
(let ((.def_470 (or .def_434 .def_469)))
(let ((.def_471 (or b.EVENT.1__AT2 .def_470)))
(let ((.def_462 (or .def_433 .def_461)))
(let ((.def_463 (or b.EVENT.1__AT2 .def_462)))
(let ((.def_472 (and .def_463 .def_471)))
(let ((.def_495 (and .def_472 .def_494)))
(let ((.def_458 (= .def_434 b.event_is_timed__AT3)))
(let ((.def_456 (= b.event_is_timed__AT2 .def_433)))
(let ((.def_459 (and .def_456 .def_458)))
(let ((.def_496 (and .def_459 .def_495)))
(let ((.def_577 (and .def_496 .def_576)))
(let ((.def_581 (and .def_577 .def_580)))
(let ((.def_584 (and .def_581 .def_583)))
(let ((.def_585 (and .def_418 .def_584)))
(let ((.def_604 (and .def_585 .def_603)))
(let ((.def_607 (and .def_604 .def_606)))
(let ((.def_443 (* 5.0 b.delta__AT2)))
(let ((.def_444 (* b.delta__AT2 .def_443)))
(let ((.def_445 (* (- 1.0) .def_444)))
(let ((.def_448 (+ .def_441 .def_445)))
(let ((.def_438 (* b.x__AT2 b.x__AT2)))
(let ((.def_449 (+ .def_438 .def_448)))
(let ((.def_450 (+ b.y__AT2 .def_449)))
(let ((.def_451 (<= 0.0 .def_450)))
(let ((.def_439 (+ b.y__AT2 .def_438)))
(let ((.def_440 (<= 0.0 .def_439)))
(let ((.def_452 (and .def_440 .def_451)))
(let ((.def_437 (not .def_436)))
(let ((.def_453 (or .def_437 .def_452)))
(let ((.def_454 (or .def_434 .def_453)))
(let ((.def_155 (not b.counter.0__AT1)))
(let ((.def_145 (not b.counter.1__AT1)))
(let ((.def_429 (and .def_145 .def_155)))
(let ((.def_150 (not b.counter.2__AT1)))
(let ((.def_430 (and .def_150 .def_429)))
(let ((.def_425 (<= .def_424 b.y__AT2)))
(let ((.def_426 (and .def_58 .def_425)))
(let ((.def_421 (or .def_418 .def_420)))
(let ((.def_411 (or .def_329 .def_339)))
(let ((.def_415 (or b.counter.3__AT2 .def_411)))
(let ((.def_412 (or b.counter.2__AT2 .def_411)))
(let ((.def_410 (or .def_334 .def_339)))
(let ((.def_413 (and .def_410 .def_412)))
(let ((.def_414 (or .def_348 .def_413)))
(let ((.def_416 (and .def_414 .def_415)))
(let ((.def_422 (and .def_416 .def_421)))
(let ((.def_427 (and .def_422 .def_426)))
(let ((.def_254 (<= 0.0 b.delta__AT1)))
(let ((.def_240 (not b.EVENT.0__AT1)))
(let ((.def_238 (not b.EVENT.1__AT1)))
(let ((.def_251 (and .def_238 .def_240)))
(let ((.def_252 (not .def_251)))
(let ((.def_406 (or .def_252 .def_254)))
(let ((.def_407 (or b.EVENT.1__AT1 .def_406)))
(let ((.def_313 (= b.bool_atom__AT1 b.bool_atom__AT2)))
(let ((.def_309 (= b.counter.0__AT1 b.counter.0__AT2)))
(let ((.def_306 (= b.counter.1__AT1 b.counter.1__AT2)))
(let ((.def_303 (= b.counter.2__AT1 b.counter.2__AT2)))
(let ((.def_301 (= b.counter.3__AT1 b.counter.3__AT2)))
(let ((.def_304 (and .def_301 .def_303)))
(let ((.def_307 (and .def_304 .def_306)))
(let ((.def_310 (and .def_307 .def_309)))
(let ((.def_402 (and .def_310 .def_313)))
(let ((.def_403 (or .def_252 .def_402)))
(let ((.def_404 (or b.EVENT.1__AT1 .def_403)))
(let ((.def_391 (* .def_196 b.delta__AT1)))
(let ((.def_392 (* (- 1.0) b.speed_y__AT2)))
(let ((.def_395 (+ .def_392 .def_391)))
(let ((.def_396 (+ b.speed_y__AT1 .def_395)))
(let ((.def_397 (= .def_396 0.0 )))
(let ((.def_380 (* b.delta__AT1 b.delta__AT1)))
(let ((.def_381 (* .def_199 .def_380)))
(let ((.def_382 (* (- 1.0) b.y__AT2)))
(let ((.def_386 (+ .def_382 .def_381)))
(let ((.def_259 (* b.speed_y__AT1 b.delta__AT1)))
(let ((.def_387 (+ .def_259 .def_386)))
(let ((.def_388 (+ b.y__AT1 .def_387)))
(let ((.def_389 (= .def_388 0.0 )))
(let ((.def_292 (= b.x__AT1 b.x__AT2)))
(let ((.def_390 (and .def_292 .def_389)))
(let ((.def_398 (and .def_390 .def_397)))
(let ((.def_399 (or .def_252 .def_398)))
(let ((.def_295 (= b.y__AT1 b.y__AT2)))
(let ((.def_375 (and .def_292 .def_295)))
(let ((.def_298 (= b.speed_y__AT1 b.speed_y__AT2)))
(let ((.def_376 (and .def_298 .def_375)))
(let ((.def_372 (= b.delta__AT1 0.0 )))
(let ((.def_373 (and .def_251 .def_372)))
(let ((.def_374 (not .def_373)))
(let ((.def_377 (or .def_374 .def_376)))
(let ((.def_378 (or b.EVENT.1__AT1 .def_377)))
(let ((.def_365 (and .def_298 .def_310)))
(let ((.def_366 (or b.bool_atom__AT1 .def_365)))
(let ((.def_340 (or b.counter.0__AT1 .def_339)))
(let ((.def_338 (or .def_155 b.counter.0__AT2)))
(let ((.def_341 (and .def_338 .def_340)))
(let ((.def_342 (and .def_329 .def_341)))
(let ((.def_343 (or b.counter.1__AT1 .def_342)))
(let ((.def_337 (or .def_145 b.counter.1__AT2)))
(let ((.def_344 (and .def_337 .def_343)))
(let ((.def_356 (and .def_334 .def_344)))
(let ((.def_357 (or b.counter.2__AT1 .def_356)))
(let ((.def_351 (and .def_155 .def_329)))
(let ((.def_352 (or b.counter.1__AT1 .def_351)))
(let ((.def_353 (and .def_337 .def_352)))
(let ((.def_354 (and b.counter.2__AT2 .def_353)))
(let ((.def_355 (or .def_150 .def_354)))
(let ((.def_358 (and .def_355 .def_357)))
(let ((.def_359 (and b.counter.3__AT2 .def_358)))
(let ((.def_360 (or b.counter.3__AT1 .def_359)))
(let ((.def_345 (and b.counter.2__AT2 .def_344)))
(let ((.def_346 (or b.counter.2__AT1 .def_345)))
(let ((.def_332 (or b.counter.1__AT1 b.counter.1__AT2)))
(let ((.def_330 (and b.counter.0__AT2 .def_329)))
(let ((.def_331 (or .def_145 .def_330)))
(let ((.def_333 (and .def_331 .def_332)))
(let ((.def_335 (and .def_333 .def_334)))
(let ((.def_336 (or .def_150 .def_335)))
(let ((.def_347 (and .def_336 .def_346)))
(let ((.def_349 (and .def_347 .def_348)))
(let ((.def_164 (not b.counter.3__AT1)))
(let ((.def_350 (or .def_164 .def_349)))
(let ((.def_361 (and .def_350 .def_360)))
(let ((.def_141 (* b.speed_y__AT1 b.speed_y__AT1)))
(let ((.def_327 (= .def_141 .def_326)))
(let ((.def_324 (+ b.speed_y__AT1 b.speed_y__AT2)))
(let ((.def_325 (= .def_324 0.0 )))
(let ((.def_328 (and .def_325 .def_327)))
(let ((.def_362 (and .def_328 .def_361)))
(let ((.def_323 (not b.bool_atom__AT1)))
(let ((.def_363 (or .def_323 .def_362)))
(let ((.def_319 (<= 0.0 b.speed_y__AT1)))
(let ((.def_320 (not .def_319)))
(let ((.def_243 (* (- 1.0) b.x__AT1)))
(let ((.def_244 (* b.x__AT1 .def_243)))
(let ((.def_318 (= b.y__AT1 .def_244)))
(let ((.def_321 (and .def_318 .def_320)))
(let ((.def_322 (= b.bool_atom__AT1 .def_321)))
(let ((.def_364 (and .def_322 .def_363)))
(let ((.def_367 (and .def_364 .def_366)))
(let ((.def_368 (and .def_292 .def_367)))
(let ((.def_369 (and .def_295 .def_368)))
(let ((.def_370 (or .def_251 .def_369)))
(let ((.def_371 (or b.EVENT.1__AT1 .def_370)))
(let ((.def_379 (and .def_371 .def_378)))
(let ((.def_400 (and .def_379 .def_399)))
(let ((.def_279 (= b.time__AT1 b.time__AT2)))
(let ((.def_293 (and .def_279 .def_292)))
(let ((.def_296 (and .def_293 .def_295)))
(let ((.def_299 (and .def_296 .def_298)))
(let ((.def_311 (and .def_299 .def_310)))
(let ((.def_314 (and .def_311 .def_313)))
(let ((.def_315 (or .def_238 .def_314)))
(let ((.def_282 (* (- 1.0) b.time__AT2)))
(let ((.def_285 (+ b.delta__AT1 .def_282)))
(let ((.def_286 (+ b.time__AT1 .def_285)))
(let ((.def_287 (= .def_286 0.0 )))
(let ((.def_288 (or .def_252 .def_287)))
(let ((.def_289 (or b.EVENT.1__AT1 .def_288)))
(let ((.def_280 (or .def_251 .def_279)))
(let ((.def_281 (or b.EVENT.1__AT1 .def_280)))
(let ((.def_290 (and .def_281 .def_289)))
(let ((.def_316 (and .def_290 .def_315)))
(let ((.def_276 (= .def_252 b.event_is_timed__AT2)))
(let ((.def_274 (= b.event_is_timed__AT1 .def_251)))
(let ((.def_277 (and .def_274 .def_276)))
(let ((.def_317 (and .def_277 .def_316)))
(let ((.def_401 (and .def_317 .def_400)))
(let ((.def_405 (and .def_401 .def_404)))
(let ((.def_408 (and .def_405 .def_407)))
(let ((.def_409 (and .def_238 .def_408)))
(let ((.def_428 (and .def_409 .def_427)))
(let ((.def_431 (and .def_428 .def_430)))
(let ((.def_261 (* 5.0 b.delta__AT1)))
(let ((.def_262 (* b.delta__AT1 .def_261)))
(let ((.def_263 (* (- 1.0) .def_262)))
(let ((.def_266 (+ .def_259 .def_263)))
(let ((.def_256 (* b.x__AT1 b.x__AT1)))
(let ((.def_267 (+ .def_256 .def_266)))
(let ((.def_268 (+ b.y__AT1 .def_267)))
(let ((.def_269 (<= 0.0 .def_268)))
(let ((.def_257 (+ b.y__AT1 .def_256)))
(let ((.def_258 (<= 0.0 .def_257)))
(let ((.def_270 (and .def_258 .def_269)))
(let ((.def_255 (not .def_254)))
(let ((.def_271 (or .def_255 .def_270)))
(let ((.def_272 (or .def_252 .def_271)))
(let ((.def_245 (<= .def_244 b.y__AT1)))
(let ((.def_246 (and .def_58 .def_245)))
(let ((.def_241 (or .def_238 .def_240)))
(let ((.def_231 (or .def_145 .def_155)))
(let ((.def_235 (or b.counter.3__AT1 .def_231)))
(let ((.def_232 (or b.counter.2__AT1 .def_231)))
(let ((.def_230 (or .def_150 .def_155)))
(let ((.def_233 (and .def_230 .def_232)))
(let ((.def_234 (or .def_164 .def_233)))
(let ((.def_236 (and .def_234 .def_235)))
(let ((.def_242 (and .def_236 .def_241)))
(let ((.def_247 (and .def_242 .def_246)))
(let ((.def_66 (<= 0.0 b.delta__AT0)))
(let ((.def_46 (not b.EVENT.0__AT0)))
(let ((.def_44 (not b.EVENT.1__AT0)))
(let ((.def_63 (and .def_44 .def_46)))
(let ((.def_64 (not .def_63)))
(let ((.def_226 (or .def_64 .def_66)))
(let ((.def_227 (or b.EVENT.1__AT0 .def_226)))
(let ((.def_128 (= b.bool_atom__AT0 b.bool_atom__AT1)))
(let ((.def_123 (= b.counter.0__AT0 b.counter.0__AT1)))
(let ((.def_120 (= b.counter.1__AT0 b.counter.1__AT1)))
(let ((.def_117 (= b.counter.2__AT0 b.counter.2__AT1)))
(let ((.def_115 (= b.counter.3__AT0 b.counter.3__AT1)))
(let ((.def_118 (and .def_115 .def_117)))
(let ((.def_121 (and .def_118 .def_120)))
(let ((.def_124 (and .def_121 .def_123)))
(let ((.def_222 (and .def_124 .def_128)))
(let ((.def_223 (or .def_64 .def_222)))
(let ((.def_224 (or b.EVENT.1__AT0 .def_223)))
(let ((.def_211 (* b.delta__AT0 .def_196)))
(let ((.def_212 (* (- 1.0) b.speed_y__AT1)))
(let ((.def_215 (+ .def_212 .def_211)))
(let ((.def_216 (+ b.speed_y__AT0 .def_215)))
(let ((.def_217 (= .def_216 0.0 )))
(let ((.def_200 (* b.delta__AT0 b.delta__AT0)))
(let ((.def_201 (* .def_199 .def_200)))
(let ((.def_203 (* (- 1.0) b.y__AT1)))
(let ((.def_206 (+ .def_203 .def_201)))
(let ((.def_72 (* b.delta__AT0 b.speed_y__AT0)))
(let ((.def_207 (+ .def_72 .def_206)))
(let ((.def_208 (+ b.y__AT0 .def_207)))
(let ((.def_209 (= .def_208 0.0 )))
(let ((.def_106 (= b.x__AT0 b.x__AT1)))
(let ((.def_210 (and .def_106 .def_209)))
(let ((.def_218 (and .def_210 .def_217)))
(let ((.def_219 (or .def_64 .def_218)))
(let ((.def_109 (= b.y__AT0 b.y__AT1)))
(let ((.def_191 (and .def_106 .def_109)))
(let ((.def_112 (= b.speed_y__AT0 b.speed_y__AT1)))
(let ((.def_192 (and .def_112 .def_191)))
(let ((.def_188 (= b.delta__AT0 0.0 )))
(let ((.def_189 (and .def_63 .def_188)))
(let ((.def_190 (not .def_189)))
(let ((.def_193 (or .def_190 .def_192)))
(let ((.def_194 (or b.EVENT.1__AT0 .def_193)))
(let ((.def_181 (and .def_112 .def_124)))
(let ((.def_182 (or b.bool_atom__AT0 .def_181)))
(let ((.def_156 (or b.counter.0__AT0 .def_155)))
(let ((.def_27 (not b.counter.0__AT0)))
(let ((.def_154 (or .def_27 b.counter.0__AT1)))
(let ((.def_157 (and .def_154 .def_156)))
(let ((.def_158 (and .def_145 .def_157)))
(let ((.def_159 (or b.counter.1__AT0 .def_158)))
(let ((.def_25 (not b.counter.1__AT0)))
(let ((.def_153 (or .def_25 b.counter.1__AT1)))
(let ((.def_160 (and .def_153 .def_159)))
(let ((.def_172 (and .def_150 .def_160)))
(let ((.def_173 (or b.counter.2__AT0 .def_172)))
(let ((.def_167 (and .def_27 .def_145)))
(let ((.def_168 (or b.counter.1__AT0 .def_167)))
(let ((.def_169 (and .def_153 .def_168)))
(let ((.def_170 (and b.counter.2__AT1 .def_169)))
(let ((.def_30 (not b.counter.2__AT0)))
(let ((.def_171 (or .def_30 .def_170)))
(let ((.def_174 (and .def_171 .def_173)))
(let ((.def_175 (and b.counter.3__AT1 .def_174)))
(let ((.def_176 (or b.counter.3__AT0 .def_175)))
(let ((.def_161 (and b.counter.2__AT1 .def_160)))
(let ((.def_162 (or b.counter.2__AT0 .def_161)))
(let ((.def_148 (or b.counter.1__AT0 b.counter.1__AT1)))
(let ((.def_146 (and b.counter.0__AT1 .def_145)))
(let ((.def_147 (or .def_25 .def_146)))
(let ((.def_149 (and .def_147 .def_148)))
(let ((.def_151 (and .def_149 .def_150)))
(let ((.def_152 (or .def_30 .def_151)))
(let ((.def_163 (and .def_152 .def_162)))
(let ((.def_165 (and .def_163 .def_164)))
(let ((.def_33 (not b.counter.3__AT0)))
(let ((.def_166 (or .def_33 .def_165)))
(let ((.def_177 (and .def_166 .def_176)))
(let ((.def_142 (* b.speed_y__AT0 b.speed_y__AT0)))
(let ((.def_143 (= .def_141 .def_142)))
(let ((.def_139 (+ b.speed_y__AT0 b.speed_y__AT1)))
(let ((.def_140 (= .def_139 0.0 )))
(let ((.def_144 (and .def_140 .def_143)))
(let ((.def_178 (and .def_144 .def_177)))
(let ((.def_138 (not b.bool_atom__AT0)))
(let ((.def_179 (or .def_138 .def_178)))
(let ((.def_134 (<= 0.0 b.speed_y__AT0)))
(let ((.def_135 (not .def_134)))
(let ((.def_51 (* (- 1.0) b.x__AT0)))
(let ((.def_52 (* b.x__AT0 .def_51)))
(let ((.def_133 (= b.y__AT0 .def_52)))
(let ((.def_136 (and .def_133 .def_135)))
(let ((.def_137 (= b.bool_atom__AT0 .def_136)))
(let ((.def_180 (and .def_137 .def_179)))
(let ((.def_183 (and .def_180 .def_182)))
(let ((.def_184 (and .def_106 .def_183)))
(let ((.def_185 (and .def_109 .def_184)))
(let ((.def_186 (or .def_63 .def_185)))
(let ((.def_187 (or b.EVENT.1__AT0 .def_186)))
(let ((.def_195 (and .def_187 .def_194)))
(let ((.def_220 (and .def_195 .def_219)))
(let ((.def_93 (= b.time__AT0 b.time__AT1)))
(let ((.def_107 (and .def_93 .def_106)))
(let ((.def_110 (and .def_107 .def_109)))
(let ((.def_113 (and .def_110 .def_112)))
(let ((.def_125 (and .def_113 .def_124)))
(let ((.def_129 (and .def_125 .def_128)))
(let ((.def_130 (or .def_44 .def_129)))
(let ((.def_96 (* (- 1.0) b.time__AT1)))
(let ((.def_99 (+ b.delta__AT0 .def_96)))
(let ((.def_100 (+ b.time__AT0 .def_99)))
(let ((.def_101 (= .def_100 0.0 )))
(let ((.def_102 (or .def_64 .def_101)))
(let ((.def_103 (or b.EVENT.1__AT0 .def_102)))
(let ((.def_94 (or .def_63 .def_93)))
(let ((.def_95 (or b.EVENT.1__AT0 .def_94)))
(let ((.def_104 (and .def_95 .def_103)))
(let ((.def_131 (and .def_104 .def_130)))
(let ((.def_90 (= .def_64 b.event_is_timed__AT1)))
(let ((.def_88 (= b.event_is_timed__AT0 .def_63)))
(let ((.def_91 (and .def_88 .def_90)))
(let ((.def_132 (and .def_91 .def_131)))
(let ((.def_221 (and .def_132 .def_220)))
(let ((.def_225 (and .def_221 .def_224)))
(let ((.def_228 (and .def_225 .def_227)))
(let ((.def_229 (and .def_44 .def_228)))
(let ((.def_248 (and .def_229 .def_247)))
(let ((.def_28 (and .def_25 .def_27)))
(let ((.def_31 (and .def_28 .def_30)))
(let ((.def_249 (and .def_31 .def_248)))
(let ((.def_75 (* 5.0 b.delta__AT0)))
(let ((.def_76 (* b.delta__AT0 .def_75)))
(let ((.def_77 (* (- 1.0) .def_76)))
(let ((.def_80 (+ .def_72 .def_77)))
(let ((.def_68 (* b.x__AT0 b.x__AT0)))
(let ((.def_81 (+ .def_68 .def_80)))
(let ((.def_82 (+ b.y__AT0 .def_81)))
(let ((.def_83 (<= 0.0 .def_82)))
(let ((.def_69 (+ b.y__AT0 .def_68)))
(let ((.def_70 (<= 0.0 .def_69)))
(let ((.def_84 (and .def_70 .def_83)))
(let ((.def_67 (not .def_66)))
(let ((.def_85 (or .def_67 .def_84)))
(let ((.def_86 (or .def_64 .def_85)))
(let ((.def_53 (<= .def_52 b.y__AT0)))
(let ((.def_59 (and .def_53 .def_58)))
(let ((.def_47 (or .def_44 .def_46)))
(let ((.def_37 (or .def_25 .def_27)))
(let ((.def_41 (or b.counter.3__AT0 .def_37)))
(let ((.def_38 (or b.counter.2__AT0 .def_37)))
(let ((.def_36 (or .def_27 .def_30)))
(let ((.def_39 (and .def_36 .def_38)))
(let ((.def_40 (or .def_33 .def_39)))
(let ((.def_42 (and .def_40 .def_41)))
(let ((.def_48 (and .def_42 .def_47)))
(let ((.def_60 (and .def_48 .def_59)))
(let ((.def_34 (and .def_31 .def_33)))
(let ((.def_22 (= b.y__AT0 10.0 )))
(let ((.def_18 (= b.x__AT0 0.0 )))
(let ((.def_14 (= b.time__AT0 0.0 )))
(let ((.def_16 (and .def_14 b.event_is_timed__AT0)))
(let ((.def_19 (and .def_16 .def_18)))
(let ((.def_23 (and .def_19 .def_22)))
(let ((.def_35 (and .def_23 .def_34)))
(let ((.def_61 (and .def_35 .def_60)))
(let ((.def_7 (and .def_4 .def_6)))
(let ((.def_10 (and .def_7 .def_9)))
(let ((.def_11 (not .def_10)))
(let ((.def_62 (and .def_11 .def_61)))
(let ((.def_87 (and .def_62 .def_86)))
(let ((.def_250 (and .def_87 .def_249)))
(let ((.def_273 (and .def_250 .def_272)))
(let ((.def_432 (and .def_273 .def_431)))
(let ((.def_455 (and .def_432 .def_454)))
(let ((.def_608 (and .def_455 .def_607)))
(let ((.def_631 (and .def_608 .def_630)))
.def_631))))))))))))))))))))))))))))))))))))))))))))))))))))))))))))))))))))))))))))))))))))))))))))))))))))))))))))))))))))))))))))))))))))))))))))))))))))))))))))))))))))))))))))))))))))))))))))))))))))))))))))))))))))))))))))))))))))))))))))))))))))))))))))))))))))))))))))))))))))))))))))))))))))))))))))))))))))))))))))))))))))))))))))))))))))))))))))))))))))))))))))))))))))))))))))))))))))))))))))))))))))))))))))))))))))))))))))))))))))))))))))))))))))))))))))))))))))))))))))))))))))))))))))))))))))))))))))))))))))))))))))))))))))))))
(check-sat)
(exit)
